
Gurobi 11.0.3 (linux64) logging started Mon Aug 25 13:13:11 2025

Set parameter LogFile to value "/home/yihong/Coding/OR_SUC/SUC_epstheta_results_bigM100000_thread4/case24_ieee_rts_theta0.1_epsilon0.2_gurobi_seed280000_num_gen100_N_WDR50_load_scaling_factor1_proposed_eps_T5quadra_cost_bc1.03.txt"
Set parameter TimeLimit to value 3600
Gurobi Optimizer version 11.0.3 build v11.0.3rc0 (linux64 - "Ubuntu 20.04.6 LTS")

CPU model: AMD EPYC 7532 32-Core Processor, instruction set [SSE2|AVX|AVX2]
Thread count: 64 physical cores, 128 logical processors, using up to 4 threads

Academic license 2399124 - for non-commercial use only - registered to yi___@ed.ac.uk
Optimize a model with 13497 rows, 6251 columns and 483422 nonzeros
Model fingerprint: 0x4abdd864
Model has 500 quadratic constraints
Variable types: 5751 continuous, 500 integer (500 binary)
Coefficient statistics:
  Matrix range     [3e-04, 3e+03]
  QMatrix range    [2e-03, 8e-03]
  QLMatrix range   [3e-01, 6e+01]
  Objective range  [1e+00, 1e+00]
  Bounds range     [1e+00, 1e+00]
  RHS range        [1e+00, 9e+03]
Presolve removed 11323 rows and 2765 columns
Presolve time: 0.17s
Presolved: 2174 rows, 3486 columns, 15396 nonzeros
Presolved model has 500 quadratic constraint(s)
Variable types: 2986 continuous, 500 integer (500 binary)

Root relaxation: objective 5.663150e+03, 1526 iterations, 0.03 seconds (0.03 work units)

    Nodes    |    Current Node    |     Objective Bounds      |     Work
 Expl Unexpl |  Obj  Depth IntInf | Incumbent    BestBd   Gap | It/Node Time

H    0     0                    180292.49110 5663.15043  96.9%     -    0s
*    0     0               0    180292.49110 5663.15043  96.9%     -    0s
     0     0 106127.128    0  105 180292.491 106127.128  41.1%     -    0s
     0     0 165478.892    0   10 180292.491 165478.892  8.22%     -    0s
     0     0 165498.097    0   15 180292.491 165498.097  8.21%     -    0s
     0     0 165498.097    0   10 180292.491 165498.097  8.21%     -    0s
     0     0 165498.097    0   10 180292.491 165498.097  8.21%     -    0s
     0     2 165498.097    0   10 180292.491 165498.097  8.21%     -    1s
H   18    17                    165517.66587 165499.196  0.01%  12.8    1s
*   18    17               5    165517.66587 165499.196  0.01%  13.0    1s

Cutting planes:
  Gomory: 59
  Implied bound: 77
  MIR: 14
  Flow cover: 46
  RLT: 54
  Relax-and-lift: 24

Explored 19 nodes (4056 simplex iterations) in 1.59 seconds (1.20 work units)
Thread count was 4 (of 128 available processors)

Solution count 2: 165518 180292 

Optimal solution found (tolerance 1.00e-03)
Warning: max constraint violation (8.4300e-08) exceeds tolerance
Best objective 1.655176658719e+05, best bound 1.654991964860e+05, gap 0.0112%

Gurobi 11.0.3 (linux64) logging started Mon Aug 25 13:13:13 2025

Set parameter LogFile to value "/home/yihong/Coding/OR_SUC/SUC_epstheta_results_bigM100000_thread4/case24_ieee_rts_theta0.1_epsilon0.2_gurobi_seed280000_num_gen100_N_WDR50_load_scaling_factor1_proposed_eps_T5quadra_cost_bc1.03.txt"
Set parameter TimeLimit to value 3600
Gurobi Optimizer version 11.0.3 build v11.0.3rc0 (linux64 - "Ubuntu 20.04.6 LTS")

CPU model: AMD EPYC 7532 32-Core Processor, instruction set [SSE2|AVX|AVX2]
Thread count: 64 physical cores, 128 logical processors, using up to 4 threads

Academic license 2399124 - for non-commercial use only - registered to yi___@ed.ac.uk
Optimize a model with 13497 rows, 6252 columns and 484921 nonzeros
Model fingerprint: 0xeb26ee77
Model has 501 quadratic constraints
Variable types: 5752 continuous, 500 integer (500 binary)
Coefficient statistics:
  Matrix range     [3e-04, 3e+03]
  QMatrix range    [2e-03, 5e+01]
  QLMatrix range   [3e-01, 6e+01]
  Objective range  [1e+00, 1e+00]
  Bounds range     [2e-01, 1e+00]
  RHS range        [1e+00, 2e+05]
  QRHS range       [5e+00, 5e+00]
Presolve removed 10500 rows and 2363 columns
Presolve time: 0.16s
Presolved: 3499 rows, 4389 columns, 21300 nonzeros
Presolved model has 500 quadratic constraint(s)
Presolved model has 1 bilinear constraint(s)

Solving non-convex MIQCP

Variable types: 3885 continuous, 504 integer (504 binary)

Root relaxation: objective 1.435284e-03, 4117 iterations, 0.13 seconds (0.19 work units)

    Nodes    |    Current Node    |     Objective Bounds      |     Work
 Expl Unexpl |  Obj  Depth IntInf | Incumbent    BestBd   Gap | It/Node Time

     0     0    0.00144    0   11          -    0.00144      -     -    0s
     0     0    0.00144    0    6          -    0.00144      -     -    0s
H    0     0                       0.0157969    0.00144  90.9%     -    0s
     0     0    0.01429    0   11    0.01580    0.01429  9.51%     -    0s
     0     0    0.01430    0    6    0.01580    0.01430  9.50%     -    0s
     0     0    0.01430    0    6    0.01580    0.01430  9.49%     -    0s
     0     0    0.01430    0    6    0.01580    0.01430  9.49%     -    0s
     0     0    0.01430    0    6    0.01580    0.01430  9.49%     -    0s
     0     0    0.01430    0    6    0.01580    0.01430  9.49%     -    0s
     0     0    0.01430    0    6    0.01580    0.01430  9.49%     -    0s
     0     0    0.01430    0    6    0.01580    0.01430  9.49%     -    0s
     0     0    0.01431    0    6    0.01580    0.01431  9.44%     -    0s
H    0     0                       0.0145244    0.01431  1.50%     -    1s
     0     2    0.01443    0    6    0.01452    0.01443  0.68%     -    1s
H   40     4                       0.0145221    0.01446  0.41%  17.1    1s
*   40     4               7       0.0145221    0.01446  0.41%  17.2    1s
H   49     3                       0.0145080    0.01448  0.19%  14.3    1s
*   49     3              12       0.0145080    0.01448  0.19%  14.3    1s

Cutting planes:
  Gomory: 3
  Implied bound: 16
  MIR: 3
  RLT: 2

Explored 57 nodes (5353 simplex iterations) in 1.93 seconds (1.83 work units)
Thread count was 4 (of 128 available processors)

Solution count 4: 0.014508 0.0145221 0.0145244 0.0157969 

Optimal solution found (tolerance 1.00e-03)
Warning: max constraint violation (1.4527e-07) exceeds tolerance
Best objective 1.450797923336e-02, best bound 1.450764545158e-02, gap 0.0023%
